p cnf 0 0
c help to minisat to remove posibilities
1 2 0
3 4 0
5 6 0
c proper colo
1 7 0
3 8 0
5 9 0
-7 3 0
-7 5 0
-7 4 6 0
-7 -4 -6 0
7 -3 -5 4 -6 0
7 -3 -5 -4 6 0
-8 1 0
-8 5 0
-8 2 6 0
-8 -2 -6 0
8 -1 -5 2 -6 0
8 -1 -5 -2 6 0
-9 1 0
-9 3 0
-9 2 4 0
-9 -2 -4 0
9 -1 -3 2 -4 0
9 -1 -3 -2 4 0
c Graph as few edges
-10 14 0
-14 10 3 0
-11 15 0
-15 11 3 0
-10 -3 15 0
-15 11 10 0
-12 16 0
-16 12 3 0
-11 -3 16 0
-16 12 11 0
-13 17 0
-17 13 3 0
-12 -3 17 0
-17 13 12 0
-14 18 0
-18 14 5 0
-15 19 0
-19 15 5 0
-14 -5 19 0
-19 15 14 0
-16 20 0
-20 16 5 0
-15 -5 20 0
-20 16 15 0
-17 21 0
-21 17 5 0
-16 -5 21 0
-21 17 16 0
10 0
-13 0
-17 0
-21 0
20 0
c Variable for even degree
-21 -1 0
21 1 0
-22 -1 -21 0
-22 1 21 0
22 1 -21 0
22 -1 21 0
-23 -3 -22 0
-23 3 22 0
23 3 -22 0
23 -3 22 0
-24 1 0
24 -1 0
-25 -5 -24 0
-25 5 24 0
25 5 -24 0
25 -5 24 0
-26 3 0
26 -3 0
-27 -5 -26 0
-27 5 26 0
27 5 -26 0
27 -5 26 0
-23 0
-25 0
-27 0
